135
161
227
210
367
356
714
415
396
705
841
1662
801
1480
449
1072
2032
160
283
1632
2240
935
3748
1759
4446
6672
2328
2057
3300
2688
3456
540
2086
1768
1134
1478
2618
3478
875
5082
773
2418
570
432
1080
887
988
1420
1976
1914
4524
4752
576
768
1536
4323
1116
1447
1552
2091
4450
825
1023
1200
2025
5708
3063
8816
4504
1535
4950
3410
4140
1520
10098
1245
2220
3330
3219
4974
875
1560
4440
2200
14552
1575
2700
11200
520
1192
432
1225
1681
2296
705
1482
